923,230
977,702
1125,476
415,364
951,406
1006,355
624,424
935,152
810,805
368,507
453,332
694,380
505,164
681,916
801,776
598,150
1001,243
576,551
1051,526
875,265
510,351
342,160
1028,229
448,173
894,514
681,826
366,635
822,600
567,443
829,554
